NAME          DCAP_2_4_3_300_SS243
ROWS
 N  OBJ
 L  CON1
 L  CON2
 L  CON3
 L  CON4
 L  CON5
 L  CON6
 L  CON7
 L  CON8
 L  CON9
 L  CON10
 L  CON11
 L  CON12
 E  CON13
 E  CON14
 E  CON15
 E  CON16
 E  CON17
 E  CON18
 E  CON19
 E  CON20
 E  CON21
 E  CON22
 E  CON23
 E  CON24
COLUMNS
    x[1,1]    OBJ       6.180167      CON1      1.000000    
    x[1,1]    CON7      -1.000000     CON8      -1.000000   
    x[1,1]    CON9      -1.000000   
    x[1,2]    OBJ       6.563535      CON2      1.000000    
    x[1,2]    CON8      -1.000000     CON9      -1.000000   
    x[1,3]    OBJ       7.443064      CON3      1.000000    
    x[1,3]    CON9      -1.000000   
    x[2,1]    OBJ       6.732585      CON4      1.000000    
    x[2,1]    CON10     -1.000000     CON11     -1.000000   
    x[2,1]    CON12     -1.000000   
    x[2,2]    OBJ       5.039546      CON5      1.000000    
    x[2,2]    CON11     -1.000000     CON12     -1.000000   
    x[2,3]    OBJ       6.054841      CON6      1.000000    
    x[2,3]    CON12     -1.000000   
    MARKER    'MARKER'                'INTORG'
    u[1,1]    OBJ       48.076654     CON1      -1.000000   
    u[1,2]    OBJ       20.066487     CON2      -1.000000   
    u[1,3]    OBJ       32.230043     CON3      -1.000000   
    u[2,1]    OBJ       49.996186     CON4      -1.000000   
    u[2,2]    OBJ       49.466655     CON5      -1.000000   
    u[2,3]    OBJ       27.484319     CON6      -1.000000   
    y[1,1,1]  OBJ       6.286318      CON7      0.759300    
    y[1,1,1]  CON13     1.000000    
    y[1,1,2]  OBJ       8.957055      CON8      1.158315    
    y[1,1,2]  CON14     1.000000    
    y[1,1,3]  OBJ       8.473753      CON9      1.411902    
    y[1,1,3]  CON15     1.000000    
    y[1,2,1]  OBJ       5.289550      CON7      0.655092    
    y[1,2,1]  CON16     1.000000    
    y[1,2,2]  OBJ       9.191083      CON8      1.176963    
    y[1,2,2]  CON17     1.000000    
    y[1,2,3]  OBJ       5.472315      CON9      0.894824    
    y[1,2,3]  CON18     1.000000    
    y[1,3,1]  OBJ       9.106730      CON7      0.517615    
    y[1,3,1]  CON19     1.000000    
    y[1,3,2]  OBJ       8.170963      CON8      0.748077    
    y[1,3,2]  CON20     1.000000    
    y[1,3,3]  OBJ       8.420519      CON9      0.997873    
    y[1,3,3]  CON21     1.000000    
    y[1,4,1]  OBJ       9.845546      CON7      0.992865    
    y[1,4,1]  CON22     1.000000    
    y[1,4,2]  OBJ       6.715258      CON8      1.266468    
    y[1,4,2]  CON23     1.000000    
    y[1,4,3]  OBJ       9.424939      CON9      0.736562    
    y[1,4,3]  CON24     1.000000    
    y[2,1,1]  OBJ       5.993068      CON10     0.759300    
    y[2,1,1]  CON13     1.000000    
    y[2,1,2]  OBJ       6.224798      CON11     1.158315    
    y[2,1,2]  CON14     1.000000    
    y[2,1,3]  OBJ       5.527794      CON12     1.411902    
    y[2,1,3]  CON15     1.000000    
    y[2,2,1]  OBJ       5.628683      CON10     0.655092    
    y[2,2,1]  CON16     1.000000    
    y[2,2,2]  OBJ       9.110713      CON11     1.176963    
    y[2,2,2]  CON17     1.000000    
    y[2,2,3]  OBJ       9.532982      CON12     0.894824    
    y[2,2,3]  CON18     1.000000    
    y[2,3,1]  OBJ       8.678578      CON10     0.517615    
    y[2,3,1]  CON19     1.000000    
    y[2,3,2]  OBJ       9.785375      CON11     0.748077    
    y[2,3,2]  CON20     1.000000    
    y[2,3,3]  OBJ       7.101511      CON12     0.997873    
    y[2,3,3]  CON21     1.000000    
    y[2,4,1]  OBJ       6.499501      CON10     0.992865    
    y[2,4,1]  CON22     1.000000    
    y[2,4,2]  OBJ       8.320312      CON11     1.266468    
    y[2,4,2]  CON23     1.000000    
    y[2,4,3]  OBJ       9.344658      CON12     0.736562    
    y[2,4,3]  CON24     1.000000    
    z[1,1]    OBJ       866.805046    CON13     1.000000    
    z[1,2]    OBJ       606.373167    CON14     1.000000    
    z[1,3]    OBJ       816.515345    CON15     1.000000    
    z[2,1]    OBJ       767.922328    CON16     1.000000    
    z[2,2]    OBJ       514.293036    CON17     1.000000    
    z[2,3]    OBJ       597.351103    CON18     1.000000    
    z[3,1]    OBJ       609.881042    CON19     1.000000    
    z[3,2]    OBJ       613.084223    CON20     1.000000    
    z[3,3]    OBJ       976.630995    CON21     1.000000    
    z[4,1]    OBJ       811.698237    CON22     1.000000    
    z[4,2]    OBJ       602.304870    CON23     1.000000    
    z[4,3]    OBJ       986.963604    CON24     1.000000    
    MARKER    'MARKER'                 'INTEND'
RHS
    RHS       CON1      -0.000000     CON2      -0.000000   
    RHS       CON3      -0.000000     CON4      -0.000000   
    RHS       CON5      -0.000000     CON6      -0.000000   
    RHS       CON7      -0.000000     CON8      -0.000000   
    RHS       CON9      -0.000000     CON10     -0.000000   
    RHS       CON11     -0.000000     CON12     -0.000000   
    RHS       CON13     1.000000      CON14     1.000000    
    RHS       CON15     1.000000      CON16     1.000000    
    RHS       CON17     1.000000      CON18     1.000000    
    RHS       CON19     1.000000      CON20     1.000000    
    RHS       CON21     1.000000      CON22     1.000000    
    RHS       CON23     1.000000      CON24     1.000000    
BOUNDS
 BV BOUND     u[1,1]  
 BV BOUND     u[1,2]  
 BV BOUND     u[1,3]  
 BV BOUND     u[2,1]  
 BV BOUND     u[2,2]  
 BV BOUND     u[2,3]  
 BV BOUND     y[1,1,1]
 BV BOUND     y[1,1,2]
 BV BOUND     y[1,1,3]
 BV BOUND     y[1,2,1]
 BV BOUND     y[1,2,2]
 BV BOUND     y[1,2,3]
 BV BOUND     y[1,3,1]
 BV BOUND     y[1,3,2]
 BV BOUND     y[1,3,3]
 BV BOUND     y[1,4,1]
 BV BOUND     y[1,4,2]
 BV BOUND     y[1,4,3]
 BV BOUND     y[2,1,1]
 BV BOUND     y[2,1,2]
 BV BOUND     y[2,1,3]
 BV BOUND     y[2,2,1]
 BV BOUND     y[2,2,2]
 BV BOUND     y[2,2,3]
 BV BOUND     y[2,3,1]
 BV BOUND     y[2,3,2]
 BV BOUND     y[2,3,3]
 BV BOUND     y[2,4,1]
 BV BOUND     y[2,4,2]
 BV BOUND     y[2,4,3]
 BV BOUND     z[1,1]  
 BV BOUND     z[1,2]  
 BV BOUND     z[1,3]  
 BV BOUND     z[2,1]  
 BV BOUND     z[2,2]  
 BV BOUND     z[2,3]  
 BV BOUND     z[3,1]  
 BV BOUND     z[3,2]  
 BV BOUND     z[3,3]  
 BV BOUND     z[4,1]  
 BV BOUND     z[4,2]  
 BV BOUND     z[4,3]  
ENDATA
